
Log started (V12.10.0.0) Sun Apr  4 08:12:46 2021


Problem 'asset.lp' read.
Read time = 0.00 sec. (0.19 ticks)
New value for default parallel thread count: 1
New value for time limit in seconds: 300
Version identifier: 12.10.0.0 | 2019-11-26 | 843d4de
CPXPARAM_Threads                                 1
CPXPARAM_TimeLimit                               300
Found incumbent of value -0.891741 after 0.00 sec. (0.09 ticks)
Tried aggregator 3 times.
MIP Presolve eliminated 408 rows and 154 columns.
MIP Presolve modified 1470 coefficients.
Aggregator did 646 substitutions.
Reduced MIP has 726 rows, 859 columns, and 3651 nonzeros.
Reduced MIP has 774 binaries, 52 generals, 0 SOSs, and 0 indicators.
Presolve time = 0.01 sec. (9.01 ticks)
Probing fixed 41 vars, tightened 0 bounds.
Probing time = 0.01 sec. (3.15 ticks)
Cover probing fixed 0 vars, tightened 38 bounds.
Tried aggregator 1 time.
Detecting symmetries...
MIP Presolve eliminated 46 rows and 46 columns.
MIP Presolve modified 240 coefficients.
Reduced MIP has 680 rows, 813 columns, and 3307 nonzeros.
Reduced MIP has 728 binaries, 52 generals, 0 SOSs, and 0 indicators.
Presolve time = 0.00 sec. (3.55 ticks)
Probing time = 0.00 sec. (2.43 ticks)
Clique table members: 2082.
MIP emphasis: balance optimality and feasibility.
MIP search method: dynamic search.
Parallel mode: none, using 1 thread.
Root relaxation solution time = 0.01 sec. (8.13 ticks)

        Nodes                                         Cuts/
   Node  Left     Objective  IInf  Best Integer    Best Bound    ItCnt     Gap

*     0+    0                           -0.8917      406.5579              --- 
      0     0      377.0307   181       -0.8917      377.0307      508     --- 
      0     0      373.1304   181       -0.8917     Cuts: 270      981     --- 
      0     0      372.3614   181       -0.8917     Cuts: 270     1362     --- 
      0     0      371.8028   181       -0.8917     Cuts: 270     1599     --- 
      0     0      371.7566   181       -0.8917     Cuts: 236     1715     --- 
      0     0      371.5248   181       -0.8917     Cuts: 193     1894     --- 
Detecting symmetries...
      0     0      371.0226   181       -0.8917     Cuts: 191     2146     --- 
      0     0      370.4704   181       -0.8917     Cuts: 206     2301     --- 
      0     0      370.3343   181       -0.8917     Cuts: 179     2391     --- 
      0     0      370.3003   181       -0.8917     Cuts: 189     2467     --- 
*     0+    0                           31.5170      370.3003              --- 
*     0+    0                           97.5559      370.3003           279.58%
      0     0        cutoff             97.5559      370.3003     2467  279.58%
      0     0      370.3002   181       97.5559     Cuts: 108     2531  279.58%
      0     0      370.3001   181       97.5559      Cuts: 82     2580  279.58%
*     0+    0                          183.8122      370.3001           101.46%
*     0+    0                          198.6188      370.3001            86.44%
*     0+    0                          210.9155      370.3001            75.57%
      0     0        cutoff            210.9155      370.3001     2580   75.57%
Detecting symmetries...
      0     2      370.3001   277      210.9155      370.1977     2580   75.52%
Elapsed time = 0.33 sec. (355.48 ticks, tree = 0.01 MB, solutions = 5)
*    30+   30                          321.6378      369.9794            15.03%
     60    53      333.0417   114      321.6378      369.9794     6328   15.03%
*    70+   57                          322.0087      369.9794            14.90%
*    90+   69                          322.1211      369.9794            14.86%
*    90+   69                          322.1214      369.9794            14.86%
*   100+   73                          322.1231      369.9794            14.86%
*   102    72      integral     0      322.1231      369.9794     6670   14.86%
    174   138      333.4366    92      322.1231      369.5729    11730   14.73%
    262   214      368.9765   265      322.1231      368.9987    16760   14.55%
    384   328      359.8301   188      322.1231      368.9985    22599   14.55%
    524   444      350.7035   118      322.1231      368.9979    27608   14.55%
*   570+  470                          322.5870      368.9979            14.39%
*   580+  480                          322.5875      368.9979            14.39%
    641   540      365.1362   198      322.5875      368.9945    32214   14.39%
*   680+  573                          322.5886      368.9920            14.38%
    695   590      360.5622   185      322.5886      368.9920    35722   14.38%
    770   652      364.9879   202      322.5886      368.8456    41651   14.34%

Performing restart 1

Repeating presolve.
Tried aggregator 1 time.
MIP Presolve modified 679 coefficients.
Reduced MIP has 680 rows, 813 columns, and 2846 nonzeros.
Reduced MIP has 728 binaries, 52 generals, 0 SOSs, and 0 indicators.
Presolve time = 0.00 sec. (2.88 ticks)
Tried aggregator 1 time.
Reduced MIP has 680 rows, 813 columns, and 2846 nonzeros.
Reduced MIP has 728 binaries, 52 generals, 0 SOSs, and 0 indicators.
Presolve time = 0.00 sec. (2.28 ticks)
Represolve time = 0.02 sec. (13.48 ticks)
    984     0      365.0438   210      322.5886     Cuts: 180    57015   13.16%
    984     0      364.1462   210      322.5886     Cuts: 157    57931   12.88%
    984     0      362.0812   210      322.5886     Cuts: 168    58392   12.24%
*   984+    0                          322.5887      362.0812            12.24%
    984     0        cutoff            322.5887      362.0812    58392   12.24%
    984     0      361.1494   210      322.5887     Cuts: 146    58665   11.95%
    984     0      358.2327   210      322.5887     Cuts: 105    58923   11.05%
    984     0      356.9909   210      322.5887     Cuts: 148    59428   10.66%
    984     0      356.3962   210      322.5887     Cuts: 183    60147   10.48%
*   984+    0                          322.5889      356.3962            10.48%
*   984+    0                          322.5895      356.3962            10.48%
*   984+    0                          322.5905      356.3962            10.48%
    984     0      356.0692   210      322.5905     Cuts: 128    60406   10.38%
    984     0      355.7891   210      322.5905     Cuts: 101    60833   10.29%
    984     0      355.4931   210      322.5905     Cuts: 119    61087   10.20%
    984     0      355.3676   210      322.5905      Cuts: 99    61455   10.16%
    984     0      355.2747   210      322.5905      Cuts: 86    61647   10.13%
    984     0      355.2593   210      322.5905      Cuts: 79    61798   10.13%
    984     0      355.1245   210      322.5905      Cuts: 59    61946   10.09%
    984     0      355.0711   210      322.5905      Cuts: 86    62108   10.07%
    984     0      354.9290   210      322.5905      Cuts: 52    62271   10.02%
    984     0      354.8453   210      322.5905      Cuts: 57    62622   10.00%
    984     0      354.7560   210      322.5905      Cuts: 42    62796    9.97%
*   984+    0                          322.5921      354.7560             9.97%
    984     0      354.6422   210      322.5921      Cuts: 71    62914    9.94%
    984     0      354.5997   210      322.5921      Cuts: 47    63000    9.92%
    984     0      354.1799   210      322.5921      Cuts: 54    63084    9.79%
    984     0      354.1568   210      322.5921      Cuts: 32    63126    9.78%
    984     0      354.1551   210      322.5921      Cuts: 23    63159    9.78%
    984     0      354.1525   210      322.5921      Cuts: 18    63209    9.78%
    984     0      354.1469   210      322.5921      Cuts: 59    63276    9.78%
*   984+    0                          322.5924      354.1469             9.78%
    984     2      354.1469   204      322.5924      354.1205    63276    9.77%
Elapsed time = 4.92 sec. (5721.36 ticks, tree = 0.01 MB, solutions = 20)
    996    14      352.1550   166      322.5924      353.8189    67931    9.68%
   1076    89      352.3802   171      322.5924      352.8448    76353    9.38%
   1212   202      351.0768   159      322.5924      352.1194    86700    9.15%
   1326   302      334.4743   107      322.5924      352.0201    95975    9.12%
   1498   448      341.1476   148      322.5924      350.6756   107268    8.71%
*  1554+  391                          332.0238      350.6119             5.60%
*  1564+  397                          332.0251      350.6119             5.60%
*  1564+  397                          332.0257      350.6119             5.60%
   1634   445      343.0565   128      332.0257      349.9614   116300    5.40%
*  1654+  336                          336.2268      349.8143             4.04%
   1813   466      348.5784   166      336.2268      349.2440   125698    3.87%
*  1834+  373                          336.5865      349.2440             3.76%
*  1844+  381                          336.5891      349.2440             3.76%
   1893   400      342.2766   121      336.5891      348.9121   133835    3.66%
*  1904+  259                          340.5824      348.9121             2.45%
*  1914+  269                          340.5830      348.9121             2.45%
*  1974+  289                          340.5861      348.5062             2.33%
*  1984+  292                          340.5881      348.5062             2.32%
   2013   317      347.7303   185      340.5881      348.5003   141782    2.32%
*  2084+  310                          340.5881      347.6362             2.07%
   2097   303      343.9126   133      340.5881      347.1556   151027    1.93%
Elapsed time = 12.49 sec. (15399.72 ticks, tree = 1.52 MB, solutions = 31)
*  2104+  187                          342.1753      347.1556             1.46%
   2234   184      342.1894    74      342.1753      345.5497   160288    0.99%
*  2375+   41                          343.7766      343.7901             0.00%

GUB cover cuts applied:  47
Clique cuts applied:  53
Cover cuts applied:  5
Implied bound cuts applied:  53
Flow cuts applied:  12
Mixed integer rounding cuts applied:  82
Zero-half cuts applied:  41
Lift and project cuts applied:  16
Gomory fractional cuts applied:  3

Root node processing (before b&c):
  Real time             =    0.33 sec. (355.88 ticks)
Sequential b&c:
  Real time             =   13.32 sec. (16464.76 ticks)
                          ------------
Total (root+branch&cut) =   13.65 sec. (16820.64 ticks)

Solution pool: 34 solutions saved.

MIP - Integer optimal, tolerance (0.0001/1e-06):  Objective =  3.4377662303e+02
Current MIP best bound =  3.4379013154e+02 (gap = 0.0135085, 0.00%)
Solution time =   13.65 sec.  Iterations = 164645  Nodes = 2375 (40)
Deterministic time = 16820.65 ticks  (1231.96 ticks/sec)


Incumbent solution
Variable Name           Solution Value
F                           385.000000
f1                            0.943377
f2                           40.280000
y16                           1.000000
y58                           1.000000
y66                           1.000000
y88                           1.000000
y109                          1.000000
y206                          1.000000
y215                          1.000000
y261                          1.000000
y264                          1.000000
y251                          1.000000
y187                          1.000000
y226                          1.000000
y73                           1.000000
y23                           1.000000
y20                           1.000000
y238                          1.000000
y77                           1.000000
y186                          1.000000
y306                          1.000000
y129                          1.000000
y145                          1.000000
y128                          1.000000
y164                          1.000000
y185                          1.000000
s3                            6.000000
s16                           6.416993
s58                           6.101891
s66                           6.856194
s84                           6.000000
s87                           6.000000
s88                           6.652761
s97                           6.000000
s109                          6.032832
s114                          6.000000
s206                          6.378671
s215                          6.421094
s240                          6.000000
s254                          6.000000
s261                          6.015913
s264                          6.539057
s289                          6.000000
s251                          6.398160
s187                          6.737612
s226                          6.442354
s73                           6.150000
s181                          6.180000
s239                          6.200000
s23                           7.183993
s20                           6.330417
s238                          7.350417
s77                           7.465406
s70                           6.560000
s94                           6.680000
s186                          7.840670
s306                          7.939112
s129                          7.878449
s145                          7.853157
s128                          7.693123
s294                          7.010000
s164                          7.600087
s185                          8.048959
x65x251x1                     1.000000
x284x226x1                    1.000000
x176x187x1                    1.000000
x119x88x1                     1.000000
x22x145x1                     1.000000
x22x164x1                     1.000000
x169x66x1                     2.000000
x170x261x1                    1.000000
x156x206x1                    1.000000
x301x73x1                     1.000000
x201x215x2                    1.000000
x4x16x2                       2.000000
x284x215x2                    1.000000
x176x187x2                    1.000000
x119x88x2                     1.000000
x231x109x2                    1.000000
x156x109x2                    1.000000
x301x20x2                     1.000000
x174x58x2                     1.000000
x65x20x3                      1.000000
x257x264x3                    2.000000
x201x251x3                    1.000000
x165x206x3                    1.000000
x165x226x3                    1.000000
x170x261x3                    1.000000
x231x73x3                     1.000000
x174x58x3                     1.000000
x16x0x2                       1.000000
x16x129x2                     1.000000
x58x0x2                       1.000000
x58x128x3                     1.000000
x66x0x1                       2.000000
x88x0x1                       1.000000
x88x0x2                       1.000000
x109x128x2                    1.000000
x109x164x2                    1.000000
x206x306x1                    1.000000
x206x129x3                    1.000000
x215x186x2                    2.000000
x261x77x1                     1.000000
x261x77x3                     1.000000
x264x306x3                    1.000000
x264x185x3                    1.000000
x251x0x1                      1.000000
x251x145x3                    1.000000
x187x0x1                      1.000000
x187x0x2                      1.000000
x226x0x1                      1.000000
x226x185x3                    1.000000
x73x23x1                      1.000000
x73x23x3                      1.000000
x23x0x1                       1.000000
x23x0x3                       1.000000
x20x238x2                     1.000000
x20x238x3                     1.000000
x238x0x2                      1.000000
x238x0x3                      1.000000
x77x0x1                       1.000000
x77x0x3                       1.000000
x186x0x2                      2.000000
x306x0x1                      1.000000
x306x0x3                      1.000000
x129x0x2                      1.000000
x129x0x3                      1.000000
x145x0x1                      1.000000
x145x0x3                      1.000000
x128x0x2                      1.000000
x128x0x3                      1.000000
x164x0x1                      1.000000
x164x0x2                      1.000000
x185x0x3                      2.000000
s65                           4.858542
z65z251z1                     1.000000
z65z20z3                      1.000000
z65z70z3                      1.000000
z65z94z3                      1.000000
z65z294z3                     1.000000
z65z185z3                     1.000000
s257                          5.114000
z257z264z3                    1.000000
z257z94z3                     1.000000
z257z294z3                    1.000000
z257z185z3                    1.000000
s201                          4.955349
z201z215z2                    1.000000
z201z251z3                    1.000000
z201z70z3                     1.000000
z201z94z3                     1.000000
z201z186z2                    1.000000
z201z294z3                    1.000000
z201z185z3                    1.000000
s4                            5.001025
z4z16z2                       1.000000
z4z186z2                      1.000000
s165                          4.954309
z165z206z3                    1.000000
z165z226z3                    1.000000
z165z70z3                     1.000000
z165z94z3                     1.000000
z165z294z3                    1.000000
z165z185z3                    1.000000
s284                          4.960934
z284z215z2                    1.000000
z284z226z1                    1.000000
z284z186z2                    1.000000
s176                          5.173766
z176z187z1                    1.000000
z176z187z2                    1.000000
s119                          5.262187
z119z88z1                     1.000000
z119z88z2                     1.000000
z119z186z2                    1.000000
s22                           5.880052
z22z145z1                     1.000000
z22z164z1                     1.000000
s169                          5.655141
z169z66z1                     1.000000
s170                          4.367380
z170z261z1                    1.000000
z170z261z3                    1.000000
z170z239z3                    1.000000
z170z70z3                     1.000000
z170z94z3                     1.000000
z170z294z3                    1.000000
z170z185z3                    1.000000
s231                          4.543750
z231z109z2                    1.000000
z231z73z3                     1.000000
z231z239z3                    1.000000
z231z70z3                     1.000000
z231z94z3                     1.000000
z231z186z2                    1.000000
z231z294z3                    1.000000
z231z185z3                    1.000000
s156                          4.584280
z156z109z2                    1.000000
z156z206z1                    1.000000
z156z186z2                    1.000000
s301                          4.548750
z301z73z1                     1.000000
z301z20z2                     1.000000
z301z186z2                    1.000000
s174                          4.624490
z174z58z2                     1.000000
z174z58z3                     1.000000
z174z239z3                    1.000000
z174z70z3                     1.000000
z174z94z3                     1.000000
z174z186z2                    1.000000
z174z294z3                    1.000000
z174z185z3                    1.000000
z16z129z2                     1.000000
z58z128z3                     1.000000
z109z186z2                    1.000000
z109z128z2                    1.000000
z109z164z2                    1.000000
z206z306z1                    1.000000
z206z129z3                    1.000000
z215z186z2                    1.000000
z261z77z1                     1.000000
z261z77z3                     1.000000
z264z306z3                    1.000000
z264z185z3                    1.000000
z251z145z3                    1.000000
z226z185z3                    1.000000
z73z23z1                      1.000000
z73z23z3                      1.000000
z20z238z2                     1.000000
z20z238z3                     1.000000
All other variables in the range 1-1661 are 0.
